

******************************************************************************
This program contains Ipopt, a library for large-scale nonlinear optimization.
 Ipopt is released as open source code under the Eclipse Public License (EPL).
         For more information visit https://github.com/coin-or/Ipopt
******************************************************************************

This is Ipopt version 3.14.11, running with linear solver MUMPS 5.5.1.

Number of nonzeros in equality constraint Jacobian...:        0
Number of nonzeros in inequality constraint Jacobian.:       38
Number of nonzeros in Lagrangian Hessian.............:       28

Total number of variables............................:        7
                     variables with only lower bounds:        0
                variables with lower and upper bounds:        7
                     variables with only upper bounds:        0
Total number of equality constraints.................:        0
Total number of inequality constraints...............:        6
        inequality constraints with only lower bounds:        5
   inequality constraints with lower and upper bounds:        0
        inequality constraints with only upper bounds:        1

iter    objective    inf_pr   inf_du lg(mu)  ||d||  lg(rg) alpha_du alpha_pr  ls
   0  2.2058684e+03 3.70e+02 1.01e+00  -1.0 0.00e+00    -  0.00e+00 0.00e+00   0
   1  1.3682469e+03 7.00e+01 3.78e+00  -1.0 7.87e+01    -  5.13e-01 1.00e+00f  1
   2  5.3216029e+02 2.89e+01 2.14e+00  -1.0 2.75e+02    -  4.01e-01 7.47e-01f  1
   3  4.0227873e+02 3.34e+00 2.98e+01  -1.0 5.36e+00    -  3.52e-01 4.54e-01F  1
   4  3.5713331e+02 2.63e+00 2.32e+01  -1.0 3.55e+00    -  1.56e-01 1.95e-01f  1
   5  3.5650828e+02 2.53e+00 2.37e+01  -1.0 3.32e+01    -  1.24e-01 2.67e-02f  4
   6  3.5765070e+02 2.51e+00 2.37e+01  -1.0 1.11e+02    -  1.04e-03 3.60e-03f  5
   7  3.5792596e+02 2.49e+00 2.42e+01  -1.0 5.13e+01  -2.0 6.17e-02 5.90e-03h  5
   8  3.5383044e+02 2.09e+00 2.44e+01  -1.0 5.28e+00    -  4.71e-01 1.30e-01f  1
   9  1.8695839e+01 8.13e+01 9.16e+02  -1.0 2.11e+01    -  5.97e-01 3.52e-01f  1
iter    objective    inf_pr   inf_du lg(mu)  ||d||  lg(rg) alpha_du alpha_pr  ls
  10  3.0259310e+01 6.97e+01 3.58e+04  -1.0 3.10e+00   2.0 7.12e-03 2.15e-03H  1
  11  1.0640914e+02 1.74e+01 1.28e+05  -1.0 1.73e+00   1.6 7.72e-01 5.04e-01h  1
  12  9.1366365e+01 1.72e+01 1.24e+05  -1.0 9.51e-01   2.9 3.37e-03 5.76e-03H  1
  13  1.2700557e+02 1.01e+01 9.48e+04  -1.0 8.40e-01   3.3 2.34e-01 5.00e-01h  2
  14  1.2799143e+02 9.85e+00 9.19e+04  -1.0 1.71e+00   3.7 1.59e-01 2.74e-02h  5
  15  1.3048181e+02 8.96e+00 8.57e+04  -1.0 4.57e-01   4.2 5.89e-01 9.12e-02h  4
  16  1.3461482e+02 7.83e+00 9.04e+04  -1.0 4.41e-01   4.6 1.00e+00 1.35e-01h  3
  17  1.3151562e+02 5.42e+00 2.49e+05  -1.0 3.78e-01   5.0 3.33e-01 6.32e-01h  1
  18  1.3143784e+02 5.41e+00 2.48e+05  -1.0 5.56e-01   4.5 1.00e+00 2.52e-03h  1
  19  1.3119744e+02 5.36e+00 2.46e+05  -1.0 4.75e-01   5.0 4.54e-01 7.73e-03h  1
iter    objective    inf_pr   inf_du lg(mu)  ||d||  lg(rg) alpha_du alpha_pr  ls
  20  1.2911944e+02 5.04e+00 2.28e+05  -1.0 5.68e-01   4.5 5.61e-01 7.45e-02h  1
  21  1.2589714e+02 4.60e+00 2.01e+05  -1.0 5.25e-01   4.9 3.70e-02 1.05e-01f  1
  22  1.2566264e+02 4.56e+00 1.99e+05  -1.0 7.19e-01   4.4 1.00e+00 9.33e-03h  1
  23  1.2562546e+02 4.55e+00 1.99e+05  -1.0 1.19e+00   4.0 4.20e-01 1.54e-03h  1
  24  1.0156928e+02 3.72e+00 9.35e+04  -1.0 6.68e-01   4.4 1.00e+00 9.55e-01f  1
  25  3.1725740e+02 1.81e+00 1.38e+05  -1.0 1.40e+01    -  4.19e-03 1.00e+00H  1
  26  3.1733895e+02 1.78e+00 1.36e+05  -1.0 1.31e+00   4.8 2.75e-01 1.56e-02h  3
  27  3.1734909e+02 1.78e+00 1.62e+05  -1.0 2.62e+00   4.3 8.92e-01 2.83e-03h  7
  28  3.1737307e+02 1.76e+00 2.21e+05  -1.0 1.31e+00   4.8 1.51e-01 1.15e-02h  6
  29  3.1738560e+02 1.75e+00 2.49e+05  -1.0 2.68e+00   4.3 1.00e+00 3.00e-03h  7
iter    objective    inf_pr   inf_du lg(mu)  ||d||  lg(rg) alpha_du alpha_pr  ls
  30  3.1743202e+02 1.73e+00 3.09e+05  -1.0 1.34e+00   4.7 1.71e-01 1.39e-02h  6
  31  3.1744689e+02 1.72e+00 3.59e+05  -1.0 2.54e+00   4.2 7.13e-01 3.33e-03h  7
  32  3.0777830e+02 1.86e+00 9.57e+05  -1.0 1.39e+00   4.7 6.10e-02 7.73e-02H  1
  33  3.6483299e+02 1.43e+00 7.05e+05  -1.0 2.60e+01    -  4.61e-01 2.50e-01h  3
  34  3.8290706e+02 1.34e+00 6.59e+05  -1.0 3.87e+01    -  1.33e-02 6.25e-02h  5
  35  3.9262101e+02 1.30e+00 6.38e+05  -1.0 4.22e+01    -  1.80e-04 3.12e-02h  6
  36  4.0350260e+02 1.26e+00 6.17e+05  -1.0 4.71e+01    -  9.52e-01 3.12e-02h  6
  37  4.1467296e+02 1.22e+00 5.97e+05  -1.0 4.83e+01    -  3.92e-02 3.12e-02h  6
  38  4.2615660e+02 1.18e+00 5.78e+05  -1.0 4.97e+01    -  1.00e+00 3.12e-02h  6
  39  4.3792884e+02 1.15e+00 5.59e+05  -1.0 5.10e+01    -  9.65e-01 3.12e-02h  6
iter    objective    inf_pr   inf_du lg(mu)  ||d||  lg(rg) alpha_du alpha_pr  ls
  40  4.4998231e+02 1.11e+00 5.41e+05  -1.0 5.22e+01    -  1.73e-01 3.12e-02h  6
  41  4.6231062e+02 1.08e+00 5.23e+05  -1.0 5.34e+01    -  1.00e+00 3.12e-02h  6
  42  4.7490679e+02 1.04e+00 5.06e+05  -1.0 5.46e+01    -  2.21e-01 3.12e-02h  6
  43  1.2048389e+03 1.98e-01 1.33e+06  -1.0 5.57e+01    -  1.00e+00 1.00e+00w  1
  44  4.5478861e+03 1.55e+03 1.93e+08  -1.0 7.75e+00   5.1 3.94e-02 5.46e-02w  1
  45  2.7563878e+03 2.19e-01 1.08e+08  -1.0 1.22e-01   6.4 6.51e-03 1.00e+00w  1
  46  4.8776464e+02 1.01e+00 4.89e+05  -1.0 1.80e-01   6.8 1.00e+00 3.12e-02h  5
  47  5.0087708e+02 9.80e-01 4.73e+05  -1.0 5.68e+01    -  3.03e-01 3.12e-02h  6
  48  5.1423734e+02 9.49e-01 4.58e+05  -1.0 5.79e+01    -  1.00e+00 3.12e-02h  6
  49  5.2783795e+02 9.20e-01 4.43e+05  -1.0 5.90e+01    -  3.87e-01 3.12e-02h  6
iter    objective    inf_pr   inf_du lg(mu)  ||d||  lg(rg) alpha_du alpha_pr  ls
  50  1.8321184e+03 1.42e-02 2.18e+06  -1.0 6.00e+01    -  4.48e-01 9.85e-01H  1
  51  1.8318503e+03 1.07e-02 1.59e+06  -1.0 2.94e-02   6.4 1.00e+00 2.50e-01f  3
  52  1.8315587e+03 9.37e-03 1.37e+06  -1.0 4.98e-02   5.9 1.00e+00 1.25e-01h  4
  53  1.8315526e+03 8.21e-03 1.19e+06  -1.0 8.03e-02   5.4 1.00e+00 1.25e-01h  4
  54  1.8314119e+03 7.70e-03 1.11e+06  -1.0 1.06e-01   4.9 1.00e+00 6.25e-02h  5
  55  1.8618324e+03 0.00e+00 1.01e+04  -1.0 3.52e+00    -  9.82e-01 1.00e+00H  1
  56  1.8595403e+03 1.86e-05 1.08e+02  -1.0 2.51e-03   4.5 1.00e+00 1.00e+00f  1
  57  1.8378889e+03 6.80e-04 1.38e+02  -1.0 2.78e+00    -  1.00e+00 1.00e+00f  1
  58  1.8096861e+03 7.79e-04 1.12e+01  -1.0 6.33e+00    -  1.00e+00 1.00e+00F  1
  59  1.8078866e+03 3.79e-04 2.79e+00  -1.0 5.88e-01    -  1.00e+00 1.00e+00h  1
iter    objective    inf_pr   inf_du lg(mu)  ||d||  lg(rg) alpha_du alpha_pr  ls
  60  1.8111347e+03 0.00e+00 1.06e-01  -1.0 2.41e-01    -  1.00e+00 1.00e+00h  1
  61  1.8098063e+03 0.00e+00 1.41e-02  -2.5 1.88e-01    -  1.00e+00 1.00e+00f  1
  62  1.8097669e+03 0.00e+00 2.04e-05  -3.8 5.20e-03    -  1.00e+00 1.00e+00h  1
  63  1.8097647e+03 0.00e+00 3.45e-08  -5.7 2.97e-04    -  1.00e+00 1.00e+00h  1
  64  1.8097647e+03 0.00e+00 8.03e-12  -8.6 3.68e-06    -  1.00e+00 1.00e+00h  1

Number of Iterations....: 64

                                   (scaled)                 (unscaled)
Objective...............:   2.4610462597763555e+02    1.8097646822896079e+03
Dual infeasibility......:   8.0316421490601967e-12    5.9061800420925995e-11
Constraint violation....:   0.0000000000000000e+00    0.0000000000000000e+00
Variable bound violation:   0.0000000000000000e+00    0.0000000000000000e+00
Complementarity.........:   2.5061574495782189e-09    1.8429378247103010e-08
Overall NLP error.......:   2.5061574495782189e-09    1.8429378247103010e-08


Number of objective function evaluations             = 273
Number of objective gradient evaluations             = 65
Number of equality constraint evaluations            = 0
Number of inequality constraint evaluations          = 273
Number of equality constraint Jacobian evaluations   = 0
Number of inequality constraint Jacobian evaluations = 65
Number of Lagrangian Hessian evaluations             = 64
Total seconds in IPOPT                               = 0.058

EXIT: Optimal Solution Found.
 
Ipopt 3.14.11: Optimal Solution Found
